
Gurobi 11.0.3 (linux64) logging started Mon Aug 25 12:53:50 2025

Set parameter LogFile to value "/home/yihong/Coding/OR_SUC/SUC_epstheta_results_bigM100000_thread4/case24_ieee_rts_theta0.1_epsilon0.2_gurobi_seed120000_num_gen100_N_WDR50_load_scaling_factor1_ori_eps_T2quadra_cost_bc1.03.txt"
Set parameter TimeLimit to value 3600
Gurobi Optimizer version 11.0.3 build v11.0.3rc0 (linux64 - "Ubuntu 20.04.6 LTS")

CPU model: AMD EPYC 7532 32-Core Processor, instruction set [SSE2|AVX|AVX2]
Thread count: 64 physical cores, 128 logical processors, using up to 4 threads

Academic license 2399124 - for non-commercial use only - registered to yi___@ed.ac.uk
Optimize a model with 5070 rows, 2531 columns and 192230 nonzeros
Model fingerprint: 0x63e261a5
Model has 200 quadratic constraints
Variable types: 2331 continuous, 200 integer (200 binary)
Coefficient statistics:
  Matrix range     [3e-04, 2e+03]
  QMatrix range    [2e-03, 8e-03]
  QLMatrix range   [2e-01, 6e+01]
  Objective range  [1e+00, 1e+00]
  Bounds range     [1e+00, 1e+00]
  RHS range        [1e+00, 8e+03]
Presolve removed 4449 rows and 1267 columns
Presolve time: 0.03s
Presolved: 621 rows, 1264 columns, 6360 nonzeros
Presolved model has 200 quadratic constraint(s)
Variable types: 1064 continuous, 200 integer (200 binary)

Root relaxation: objective 1.847123e+03, 357 iterations, 0.00 seconds (0.00 work units)

    Nodes    |    Current Node    |     Objective Bounds      |     Work
 Expl Unexpl |  Obj  Depth IntInf | Incumbent    BestBd   Gap | It/Node Time

     0     0 1847.12301    0    4          - 1847.12301      -     -    0s
     0     0 2232.62377    0   98          - 2232.62377      -     -    0s
     0     0 27410.7023    0   68          - 27410.7023      -     -    0s
     0     0 27715.1624    0   68          - 27715.1624      -     -    0s
     0     0 32951.5951    0   22          - 32951.5951      -     -    0s
     0     0 32954.4471    0   24          - 32954.4471      -     -    0s
     0     0 32958.3082    0   14          - 32958.3082      -     -    0s
     0     0 32959.0858    0   14          - 32959.0858      -     -    0s
     0     0 32959.0858    0   14          - 32959.0858      -     -    0s
H    0     0                    32964.511938 32959.0858  0.02%     -    0s

Cutting planes:
  Gomory: 8
  Implied bound: 62
  MIR: 32
  Flow cover: 104

Explored 1 nodes (1574 simplex iterations) in 0.19 seconds (0.16 work units)
Thread count was 4 (of 128 available processors)

Solution count 1: 32964.5 

Optimal solution found (tolerance 1.00e-03)
Warning: max constraint violation (7.2991e-09) exceeds tolerance
Best objective 3.296451193803e+04, best bound 3.295908582530e+04, gap 0.0165%

Gurobi 11.0.3 (linux64) logging started Mon Aug 25 12:53:51 2025

Set parameter LogFile to value "/home/yihong/Coding/OR_SUC/SUC_epstheta_results_bigM100000_thread4/case24_ieee_rts_theta0.1_epsilon0.2_gurobi_seed120000_num_gen100_N_WDR50_load_scaling_factor1_ori_eps_T2quadra_cost_bc1.03.txt"
Set parameter TimeLimit to value 3600
Gurobi Optimizer version 11.0.3 build v11.0.3rc0 (linux64 - "Ubuntu 20.04.6 LTS")

CPU model: AMD EPYC 7532 32-Core Processor, instruction set [SSE2|AVX|AVX2]
Thread count: 64 physical cores, 128 logical processors, using up to 4 threads

Academic license 2399124 - for non-commercial use only - registered to yi___@ed.ac.uk
Optimize a model with 11154 rows, 2532 columns and 850651 nonzeros
Model fingerprint: 0x0981d3b8
Model has 201 quadratic constraints
Variable types: 2332 continuous, 200 integer (200 binary)
Coefficient statistics:
  Matrix range     [3e-04, 2e+03]
  QMatrix range    [2e-03, 5e+01]
  QLMatrix range   [2e-01, 6e+01]
  Objective range  [1e+00, 1e+00]
  Bounds range     [2e-01, 1e+00]
  RHS range        [2e-02, 3e+04]
  QRHS range       [5e+00, 5e+00]
Presolve removed 3406 rows and 1121 columns
Presolve time: 0.73s
Presolved: 7950 rows, 1612 columns, 171591 nonzeros
Presolved model has 200 quadratic constraint(s)
Presolved model has 1 bilinear constraint(s)
Warning: Model contains variables with very large bounds participating
         in product terms.
         Presolve was not able to compute smaller bounds for these variables.
         Consider bounding these variables or reformulating the model.


Solving non-convex MIQCP

Variable types: 1408 continuous, 204 integer (204 binary)

Root relaxation: objective 0.000000e+00, 782 iterations, 0.10 seconds (0.26 work units)

    Nodes    |    Current Node    |     Objective Bounds      |     Work
 Expl Unexpl |  Obj  Depth IntInf | Incumbent    BestBd   Gap | It/Node Time

     0     0    0.00000    0    5          -    0.00000      -     -    1s
     0     0    0.00000    0    3          -    0.00000      -     -    2s
     0     0    0.00000    0    3          -    0.00000      -     -    2s
     0     0    0.00000    0    3          -    0.00000      -     -    2s
     0     0    0.00000    0    3          -    0.00000      -     -    2s
     0     0    0.00000    0    3          -    0.00000      -     -    2s
     0     0    0.00000    0    3          -    0.00000      -     -    3s
     0     2    0.00000    0    3          -    0.00000      -     -    4s
     4     6    0.06452    2    -          -    0.00000      -  34.5   63s
*   12    12               2       0.0645187    0.00000   100%  33.7   63s
    29    30    0.02410    7    3    0.06452    0.00000   100%   152   73s
H   32    30                       0.0640575    0.00000   100%   138   73s
H   61    52                       0.0640575    0.00000   100%   126   84s
    78    63    0.02787   14    1    0.06406    0.00000   100%   107   85s
*   84    64              19       0.0311812    0.00000   100%   100   85s
*   95    66              21       0.0311806    0.00000   100%  92.0   85s
*   96    66              21       0.0311805    0.00000   100%  91.0   85s
   630   339    0.02907    9    2    0.03118    0.01730  44.5%  46.5   93s
   631   340    0.02413   22    2    0.03118    0.01730  44.5%  46.4   98s
H  632   322                       0.0254202    0.02253  11.4%  46.4  100s
H  641   313                       0.0244504    0.02439  0.26%  47.8  103s

Cutting planes:
  Implied bound: 1
  MIR: 6
  Mixing: 1
  Flow cover: 1
  RLT: 1

Explored 642 nodes (33119 simplex iterations) in 103.17 seconds (91.45 work units)
Thread count was 4 (of 128 available processors)

Solution count 7: 0.0244504 0.0254202 0.0311805 ... 0.0645187

Optimal solution found (tolerance 1.00e-03)
Best objective 2.445039707786e-02, best bound 2.443078136731e-02, gap 0.0802%
